8 8
  0	72	1	21	2	16	3	44	4	31	5	28	6	91	7	60	
  0	84	1	14	2	58	3	17	4	80	5	20	6	45	7	28	
  0	37	1	77	2	49	3	40	4	81	5	97	6	90	7	92	
  0	33	1	51	2	30	3	85	4	94	5	88	6	66	7	17	
  0	80	1	72	2	12	3	6	4	41	5	81	6	30	7	3	
  0	64	1	69	2	31	3	38	4	92	5	47	6	22	7	36	
  0	79	1	69	2	38	3	92	4	68	5	69	6	92	7	62	
  0	49	1	81	2	75	3	59	4	31	5	37	6	42	7	98	
